p cnf 132 162
16 23 42 51 0
16 23 42 -51 0
-16 23 42 52 0
-16 23 42 -52 0
26 41 -42 53 0
26 41 -42 -53 0
-26 41 -42 54 0
-26 41 -42 -54 0
32 -41 -42 55 0
32 -41 -42 -55 0
6 15 -41 56 0
6 15 -41 -56 0
-6 15 -32 57 0
-6 15 -32 -57 0
1 -32 46 58 0
1 -32 46 -58 0
-1 -32 46 59 0
-1 -32 46 -59 0
-15 -41 -46 60 0
-15 -41 -46 -60 0
-15 -21 -46 61 0
-15 -21 -46 -61 0
-23 33 38 62 0
-23 33 38 -62 0
-23 -33 38 63 0
-23 -33 38 -63 0
8 22 33 64 0
8 22 33 -64 0
8 22 -33 65 0
8 22 -33 -65 0
-22 37 -38 66 0
-22 37 -38 -66 0
13 36 -37 67 0
13 36 -37 -67 0
13 -22 -36 68 0
13 -22 -36 -68 0
-13 -22 -37 69 0
-13 -22 -37 -69 0
11 -23 47 70 0
11 -23 47 -70 0
-8 11 -47 71 0
-8 11 -47 -71 0
-8 -11 39 72 0
-8 -11 39 -72 0
-11 27 -39 73 0
-11 27 -39 -73 0
-8 -11 -39 74 0
-8 -11 -39 -74 0
-7 26 29 75 0
-7 26 29 -75 0
-7 -26 29 76 0
-7 -26 29 -76 0
-13 20 36 77 0
-13 20 36 -77 0
-13 17 20 78 0
-13 17 20 -78 0
5 -17 20 79 0
5 -17 20 -79 0
5 -19 -45 80 0
5 -19 -45 -80 0
-5 -10 -45 81 0
-5 -10 -45 -81 0
6 25 47 82 0
6 25 47 -82 0
-6 -10 25 83 0
-6 -10 25 -83 0
-2 -27 37 84 0
-2 -27 37 -84 0
-27 -36 40 85 0
-27 -36 40 -85 0
18 39 -40 86 0
18 39 -40 -86 0
-2 -19 31 87 0
-2 -19 31 -87 0
5 18 -30 88 0
5 18 -30 -88 0
-31 -43 -50 89 0
-31 -43 -50 -89 0
10 -30 43 90 0
10 -30 43 -90 0
10 -41 43 91 0
10 -41 43 -91 0
19 21 29 92 0
19 21 29 -92 0
37 42 45 93 0
37 42 45 -93 0
-20 27 40 94 0
-20 27 40 -94 0
-21 -36 48 95 0
-21 -36 48 -95 0
31 -36 -48 96 0
31 -36 -48 -96 0
3 -9 -18 97 0
3 -9 -18 -97 0
16 -40 -47 98 0
16 -40 -47 -98 0
1 -18 21 99 0
1 -18 21 -99 0
2 28 32 100 0
2 28 32 -100 0
-1 -24 -50 101 0
-1 -24 -50 -101 0
-12 35 49 102 0
-12 35 49 -102 0
-6 -36 45 103 0
-6 -36 45 -103 0
7 12 -43 104 0
7 12 -43 -104 0
7 30 -43 105 0
7 30 -43 -105 0
-5 9 -17 106 0
-5 9 -17 -106 0
3 14 50 107 0
3 14 50 -107 0
-12 17 -49 108 0
-12 17 -49 -108 0
24 34 49 109 0
24 34 49 -109 0
14 -20 24 110 0
14 -20 24 -110 0
-9 35 -49 111 0
-9 35 -49 -111 0
-4 -47 50 112 0
-4 -47 50 -112 0
4 44 -44 113 0
4 44 -44 -113 0
28 -28 -38 114 0
28 -28 -38 -114 0
2 4 -48 115 0
2 4 -48 -115 0
-20 35 -44 116 0
-20 35 -44 -116 0
30 -31 -43 117 0
30 -31 -43 -117 0
-14 -29 35 118 0
-14 -29 35 -118 0
-20 35 -35 119 0
-20 35 -35 -119 0
19 -22 -24 120 0
19 -22 -24 -120 0
-25 -28 48 121 0
-25 -28 48 -121 0
-14 -34 44 122 0
-14 -34 44 -122 0
9 20 44 123 0
9 20 44 -123 0
-3 9 -29 124 0
-3 9 -29 -124 0
17 34 -34 125 0
17 34 -34 -125 0
12 48 126 127 0
12 48 126 -127 0
12 48 -126 128 0
12 48 -126 -128 0
-12 -25 -43 129 0
-12 -25 -43 -129 0
-25 -31 48 130 0
-25 -31 48 -130 0
14 -16 49 131 0
14 -16 49 -131 0
-3 -4 -35 132 0
-3 -4 -35 -132 0

